20	5
0	5	1	6	2	3	4
1	1	10
2	1	12
3	0
4	1	14
5	1	16
6	1	13
7	1	11
8	2	9	13
9	1	5
10	2	18	21
11	2	15	20
12	1	19
13	2	7	12
14	1	8
15	2	17	10
16	1	21
17	1	21
18	1	21
19	1	21
20	1	21
21	0
0	0	0	0	0	0	0
1	5	4	1	1	1	4
2	7	5	3	2	2	4
3	8	5	2	2	5	4
4	1	4	1	2	5	5
5	2	4	4	4	5	1
6	10	5	1	2	3	1
7	3	4	4	3	1	3
8	2	2	2	2	3	4
9	5	5	1	4	5	1
10	6	3	3	5	5	4
11	5	2	4	4	4	5
12	3	4	2	4	2	5
13	4	5	1	4	1	5
14	10	3	4	1	3	4
15	6	1	4	4	1	4
16	2	3	1	5	4	5
17	3	5	3	3	2	4
18	4	1	2	1	1	4
19	3	2	4	1	5	5
20	2	3	1	4	3	3
21	0	0	0	0	0	0
16	9	8	12	14
